87
97
98
91
100
37
92
94
27
1
69
52
18
60
83
45
17
84
5
59
95
13
58
21
73
72
4
54
80
68
29
24
55
25
39
67
23
56
75
74
22
41
15
43
42
14
44
38
86
16
61
85
93
99
96
6
89
101
53
28
76
50
33
81
35
71
65
66
20
32
90
63
10
62
19
11
64
49
36
47
46
8
82
48
7
88
31
70
30
51
9
34
78
79
3
77
12
26
40
2
57
87
